results_rootrelaxation/bin012_070_038.srr.sol
solution status: optimal solution found
objective value:                     8.61872909698996
_var708_                            0.107023411371235 	(obj:1)
_var726_                            0.140468227424751 	(obj:0)
_var741_                            0.193979933110373 	(obj:0)
_var757_                           0.0234113712374613 	(obj:1)
_var760_                           0.0200668896321046 	(obj:2)
_var761_                            0.511705685618729 	(obj:0)
_var772_                           0.0200668896321049 	(obj:1)
_var773_                            0.551839464882942 	(obj:1)
_var782_                           0.0133779264214026 	(obj:1)
_var786_                            0.200668896321072 	(obj:0)
_var791_                            0.100334448160537 	(obj:0)
_var810_                            0.167224080267562 	(obj:1)
_var815_                            0.347826086956521 	(obj:1)
_var816_                            0.468227424749166 	(obj:0)
_var826_                            0.327759197324417 	(obj:0)
_var830_                           0.0367892976588609 	(obj:0)
_var831_                            0.167224080267559 	(obj:0)
_var835_                            0.237458193979935 	(obj:1)
_var836_                           0.0200668896321046 	(obj:0)
_var846_                            0.280936454849499 	(obj:0)
_var850_                           0.0167224080267635 	(obj:1)
_var854_                             0.47491638795987 	(obj:1)
_var855_                            0.337792642140462 	(obj:2)
_var858_                           0.0267558528428088 	(obj:2)
_var862_                              0.1438127090301 	(obj:1)
_var864_                            0.327759197324415 	(obj:1)
_var869_                            0.264214046822746 	(obj:2)
_var872_                           0.0234113712374613 	(obj:1)
_var873_                            0.120401337792644 	(obj:2)
_var875_                            0.344481605351166 	(obj:2)
_var876_                           0.0769230769230732 	(obj:1)
_var877_                            0.250836120401335 	(obj:0)
_var878_                            0.387959866220736 	(obj:1)
_var880_                            0.120401337792644 	(obj:2)
_var884_                           0.0133779264214025 	(obj:1)
_var886_                           0.0301003344481652 	(obj:2)
_var888_                            0.451505016722409 	(obj:0)
_var896_                            0.157190635451503 	(obj:1)
_var897_                            0.274247491638792 	(obj:1)
_var903_                            0.444816053511706 	(obj:0)
_var905_                            0.331103678929765 	(obj:0)
_var906_                           0.0234113712374605 	(obj:1)
_var912_                            0.351170568561871 	(obj:1)
_var914_                            0.137123745819398 	(obj:1)
_var915_                            0.160535117056856 	(obj:2)
_var918_                           0.0267558528428087 	(obj:1)
_var921_                           0.0100334448160579 	(obj:2)
_var923_                            0.331103678929765 	(obj:1)
_var927_                            0.103678929765885 	(obj:1)
_var929_                            0.247491638795985 	(obj:2)
_var931_                            0.220735785953173 	(obj:2)
_var936_                            0.331103678929757 	(obj:0)
_var937_                            0.150501672240799 	(obj:0)
_var939_                           0.0668896321070244 	(obj:2)
_var941_                           0.0702341137123708 	(obj:1)
_var942_                           0.0234113712374613 	(obj:2)
_var943_                           0.0936454849498369 	(obj:1)
_var947_                           0.0334448160535082 	(obj:2)
_var950_                           0.0635451505016771 	(obj:1)
